(set-logic QF_LRA)
(declare-fun T1 () Real )
(declare-fun T2 () Real )
(declare-fun T3 () Real )
(declare-fun T4 () Real )
(declare-fun T5 () Real )
(declare-fun T6 () Real )
(declare-fun T7 () Real )
(declare-fun T8 () Real )
(declare-fun Z () Real )
(assert ( and 
(or ( <= ( + T1 18 ) T2 ) ( <= ( + T2 33 ) T1 ) )
(or ( <= ( + T1 35 )  ( + T2 33 ) ) ( <= ( + T2 108 )( + T1 18 ) ) )
(or ( <= ( + T1 91 )  ( + T2 108 ) ) ( <= ( + T2 201 )( + T1 35 ) ) )
(or ( <= ( + T1 134 )  ( + T2 201 ) ) ( <= ( + T2 296 )( + T1 91 ) ) )
(or ( <= ( + T1 221 )  ( + T2 296 ) ) ( <= ( + T2 322 )( + T1 134 ) ) )
(or ( <= ( + T1 300 )  ( + T2 322 ) ) ( <= ( + T2 343 )( + T1 221 ) ) )
(or ( <= ( + T1 18 ) T3 ) ( <= ( + T3 92 ) T1 ) )
(or ( <= ( + T1 35 )  ( + T3 92 ) ) ( <= ( + T3 117 )( + T1 18 ) ) )
(or ( <= ( + T1 91 )  ( + T3 117 ) ) ( <= ( + T3 175 )( + T1 35 ) ) )
(or ( <= ( + T1 134 )  ( + T3 175 ) ) ( <= ( + T3 258 )( + T1 91 ) ) )
(or ( <= ( + T1 221 )  ( + T3 258 ) ) ( <= ( + T3 298 )( + T1 134 ) ) )
(or ( <= ( + T1 300 )  ( + T3 298 ) ) ( <= ( + T3 322 )( + T1 221 ) ) )
(or ( <= ( + T1 18 ) T4 ) ( <= ( + T4 10 ) T1 ) )
(or ( <= ( + T1 35 )  ( + T4 10 ) ) ( <= ( + T4 103 )( + T1 18 ) ) )
(or ( <= ( + T1 91 )  ( + T4 103 ) ) ( <= ( + T4 139 )( + T1 35 ) ) )
(or ( <= ( + T1 134 )  ( + T4 139 ) ) ( <= ( + T4 147 )( + T1 91 ) ) )
(or ( <= ( + T1 221 )  ( + T4 147 ) ) ( <= ( + T4 180 )( + T1 134 ) ) )
(or ( <= ( + T1 300 )  ( + T4 180 ) ) ( <= ( + T4 186 )( + T1 221 ) ) )
(or ( <= ( + T1 18 ) T5 ) ( <= ( + T5 74 ) T1 ) )
(or ( <= ( + T1 35 )  ( + T5 74 ) ) ( <= ( + T5 174 )( + T1 18 ) ) )
(or ( <= ( + T1 91 )  ( + T5 174 ) ) ( <= ( + T5 196 )( + T1 35 ) ) )
(or ( <= ( + T1 134 )  ( + T5 196 ) ) ( <= ( + T5 211 )( + T1 91 ) ) )
(or ( <= ( + T1 221 )  ( + T5 211 ) ) ( <= ( + T5 263 )( + T1 134 ) ) )
(or ( <= ( + T1 300 )  ( + T5 263 ) ) ( <= ( + T5 277 )( + T1 221 ) ) )
(or ( <= ( + T1 18 ) T6 ) ( <= ( + T6 87 ) T1 ) )
(or ( <= ( + T1 35 )  ( + T6 87 ) ) ( <= ( + T6 109 )( + T1 18 ) ) )
(or ( <= ( + T1 91 )  ( + T6 109 ) ) ( <= ( + T6 139 )( + T1 35 ) ) )
(or ( <= ( + T1 134 )  ( + T6 139 ) ) ( <= ( + T6 234 )( + T1 91 ) ) )
(or ( <= ( + T1 221 )  ( + T6 234 ) ) ( <= ( + T6 250 )( + T1 134 ) ) )
(or ( <= ( + T1 300 )  ( + T6 250 ) ) ( <= ( + T6 267 )( + T1 221 ) ) )
(or ( <= ( + T1 18 ) T7 ) ( <= ( + T7 25 ) T1 ) )
(or ( <= ( + T1 35 )  ( + T7 25 ) ) ( <= ( + T7 26 )( + T1 18 ) ) )
(or ( <= ( + T1 91 )  ( + T7 26 ) ) ( <= ( + T7 117 )( + T1 35 ) ) )
(or ( <= ( + T1 134 )  ( + T7 117 ) ) ( <= ( + T7 134 )( + T1 91 ) ) )
(or ( <= ( + T1 221 )  ( + T7 134 ) ) ( <= ( + T7 181 )( + T1 134 ) ) )
(or ( <= ( + T1 300 )  ( + T7 181 ) ) ( <= ( + T7 250 )( + T1 221 ) ) )
(or ( <= ( + T1 18 ) T8 ) ( <= ( + T8 90 ) T1 ) )
(or ( <= ( + T1 35 )  ( + T8 90 ) ) ( <= ( + T8 128 )( + T1 18 ) ) )
(or ( <= ( + T1 91 )  ( + T8 128 ) ) ( <= ( + T8 221 )( + T1 35 ) ) )
(or ( <= ( + T1 134 )  ( + T8 221 ) ) ( <= ( + T8 268 )( + T1 91 ) ) )
(or ( <= ( + T1 221 )  ( + T8 268 ) ) ( <= ( + T8 288 )( + T1 134 ) ) )
(or ( <= ( + T1 300 )  ( + T8 288 ) ) ( <= ( + T8 373 )( + T1 221 ) ) )
(or ( <= ( + T2 33 ) T3 ) ( <= ( + T3 92 ) T2 ) )
(or ( <= ( + T2 108 )  ( + T3 92 ) ) ( <= ( + T3 117 )( + T2 33 ) ) )
(or ( <= ( + T2 201 )  ( + T3 117 ) ) ( <= ( + T3 175 )( + T2 108 ) ) )
(or ( <= ( + T2 296 )  ( + T3 175 ) ) ( <= ( + T3 258 )( + T2 201 ) ) )
(or ( <= ( + T2 322 )  ( + T3 258 ) ) ( <= ( + T3 298 )( + T2 296 ) ) )
(or ( <= ( + T2 343 )  ( + T3 298 ) ) ( <= ( + T3 322 )( + T2 322 ) ) )
(or ( <= ( + T2 33 ) T4 ) ( <= ( + T4 10 ) T2 ) )
(or ( <= ( + T2 108 )  ( + T4 10 ) ) ( <= ( + T4 103 )( + T2 33 ) ) )
(or ( <= ( + T2 201 )  ( + T4 103 ) ) ( <= ( + T4 139 )( + T2 108 ) ) )
(or ( <= ( + T2 296 )  ( + T4 139 ) ) ( <= ( + T4 147 )( + T2 201 ) ) )
(or ( <= ( + T2 322 )  ( + T4 147 ) ) ( <= ( + T4 180 )( + T2 296 ) ) )
(or ( <= ( + T2 343 )  ( + T4 180 ) ) ( <= ( + T4 186 )( + T2 322 ) ) )
(or ( <= ( + T2 33 ) T5 ) ( <= ( + T5 74 ) T2 ) )
(or ( <= ( + T2 108 )  ( + T5 74 ) ) ( <= ( + T5 174 )( + T2 33 ) ) )
(or ( <= ( + T2 201 )  ( + T5 174 ) ) ( <= ( + T5 196 )( + T2 108 ) ) )
(or ( <= ( + T2 296 )  ( + T5 196 ) ) ( <= ( + T5 211 )( + T2 201 ) ) )
(or ( <= ( + T2 322 )  ( + T5 211 ) ) ( <= ( + T5 263 )( + T2 296 ) ) )
(or ( <= ( + T2 343 )  ( + T5 263 ) ) ( <= ( + T5 277 )( + T2 322 ) ) )
(or ( <= ( + T2 33 ) T6 ) ( <= ( + T6 87 ) T2 ) )
(or ( <= ( + T2 108 )  ( + T6 87 ) ) ( <= ( + T6 109 )( + T2 33 ) ) )
(or ( <= ( + T2 201 )  ( + T6 109 ) ) ( <= ( + T6 139 )( + T2 108 ) ) )
(or ( <= ( + T2 296 )  ( + T6 139 ) ) ( <= ( + T6 234 )( + T2 201 ) ) )
(or ( <= ( + T2 322 )  ( + T6 234 ) ) ( <= ( + T6 250 )( + T2 296 ) ) )
(or ( <= ( + T2 343 )  ( + T6 250 ) ) ( <= ( + T6 267 )( + T2 322 ) ) )
(or ( <= ( + T2 33 ) T7 ) ( <= ( + T7 25 ) T2 ) )
(or ( <= ( + T2 108 )  ( + T7 25 ) ) ( <= ( + T7 26 )( + T2 33 ) ) )
(or ( <= ( + T2 201 )  ( + T7 26 ) ) ( <= ( + T7 117 )( + T2 108 ) ) )
(or ( <= ( + T2 296 )  ( + T7 117 ) ) ( <= ( + T7 134 )( + T2 201 ) ) )
(or ( <= ( + T2 322 )  ( + T7 134 ) ) ( <= ( + T7 181 )( + T2 296 ) ) )
(or ( <= ( + T2 343 )  ( + T7 181 ) ) ( <= ( + T7 250 )( + T2 322 ) ) )
(or ( <= ( + T2 33 ) T8 ) ( <= ( + T8 90 ) T2 ) )
(or ( <= ( + T2 108 )  ( + T8 90 ) ) ( <= ( + T8 128 )( + T2 33 ) ) )
(or ( <= ( + T2 201 )  ( + T8 128 ) ) ( <= ( + T8 221 )( + T2 108 ) ) )
(or ( <= ( + T2 296 )  ( + T8 221 ) ) ( <= ( + T8 268 )( + T2 201 ) ) )
(or ( <= ( + T2 322 )  ( + T8 268 ) ) ( <= ( + T8 288 )( + T2 296 ) ) )
(or ( <= ( + T2 343 )  ( + T8 288 ) ) ( <= ( + T8 373 )( + T2 322 ) ) )
(or ( <= ( + T3 92 ) T4 ) ( <= ( + T4 10 ) T3 ) )
(or ( <= ( + T3 117 )  ( + T4 10 ) ) ( <= ( + T4 103 )( + T3 92 ) ) )
(or ( <= ( + T3 175 )  ( + T4 103 ) ) ( <= ( + T4 139 )( + T3 117 ) ) )
(or ( <= ( + T3 258 )  ( + T4 139 ) ) ( <= ( + T4 147 )( + T3 175 ) ) )
(or ( <= ( + T3 298 )  ( + T4 147 ) ) ( <= ( + T4 180 )( + T3 258 ) ) )
(or ( <= ( + T3 322 )  ( + T4 180 ) ) ( <= ( + T4 186 )( + T3 298 ) ) )
(or ( <= ( + T3 92 ) T5 ) ( <= ( + T5 74 ) T3 ) )
(or ( <= ( + T3 117 )  ( + T5 74 ) ) ( <= ( + T5 174 )( + T3 92 ) ) )
(or ( <= ( + T3 175 )  ( + T5 174 ) ) ( <= ( + T5 196 )( + T3 117 ) ) )
(or ( <= ( + T3 258 )  ( + T5 196 ) ) ( <= ( + T5 211 )( + T3 175 ) ) )
(or ( <= ( + T3 298 )  ( + T5 211 ) ) ( <= ( + T5 263 )( + T3 258 ) ) )
(or ( <= ( + T3 322 )  ( + T5 263 ) ) ( <= ( + T5 277 )( + T3 298 ) ) )
(or ( <= ( + T3 92 ) T6 ) ( <= ( + T6 87 ) T3 ) )
(or ( <= ( + T3 117 )  ( + T6 87 ) ) ( <= ( + T6 109 )( + T3 92 ) ) )
(or ( <= ( + T3 175 )  ( + T6 109 ) ) ( <= ( + T6 139 )( + T3 117 ) ) )
(or ( <= ( + T3 258 )  ( + T6 139 ) ) ( <= ( + T6 234 )( + T3 175 ) ) )
(or ( <= ( + T3 298 )  ( + T6 234 ) ) ( <= ( + T6 250 )( + T3 258 ) ) )
(or ( <= ( + T3 322 )  ( + T6 250 ) ) ( <= ( + T6 267 )( + T3 298 ) ) )
(or ( <= ( + T3 92 ) T7 ) ( <= ( + T7 25 ) T3 ) )
(or ( <= ( + T3 117 )  ( + T7 25 ) ) ( <= ( + T7 26 )( + T3 92 ) ) )
(or ( <= ( + T3 175 )  ( + T7 26 ) ) ( <= ( + T7 117 )( + T3 117 ) ) )
(or ( <= ( + T3 258 )  ( + T7 117 ) ) ( <= ( + T7 134 )( + T3 175 ) ) )
(or ( <= ( + T3 298 )  ( + T7 134 ) ) ( <= ( + T7 181 )( + T3 258 ) ) )
(or ( <= ( + T3 322 )  ( + T7 181 ) ) ( <= ( + T7 250 )( + T3 298 ) ) )
(or ( <= ( + T3 92 ) T8 ) ( <= ( + T8 90 ) T3 ) )
(or ( <= ( + T3 117 )  ( + T8 90 ) ) ( <= ( + T8 128 )( + T3 92 ) ) )
(or ( <= ( + T3 175 )  ( + T8 128 ) ) ( <= ( + T8 221 )( + T3 117 ) ) )
(or ( <= ( + T3 258 )  ( + T8 221 ) ) ( <= ( + T8 268 )( + T3 175 ) ) )
(or ( <= ( + T3 298 )  ( + T8 268 ) ) ( <= ( + T8 288 )( + T3 258 ) ) )
(or ( <= ( + T3 322 )  ( + T8 288 ) ) ( <= ( + T8 373 )( + T3 298 ) ) )
(or ( <= ( + T4 10 ) T5 ) ( <= ( + T5 74 ) T4 ) )
(or ( <= ( + T4 103 )  ( + T5 74 ) ) ( <= ( + T5 174 )( + T4 10 ) ) )
(or ( <= ( + T4 139 )  ( + T5 174 ) ) ( <= ( + T5 196 )( + T4 103 ) ) )
(or ( <= ( + T4 147 )  ( + T5 196 ) ) ( <= ( + T5 211 )( + T4 139 ) ) )
(or ( <= ( + T4 180 )  ( + T5 211 ) ) ( <= ( + T5 263 )( + T4 147 ) ) )
(or ( <= ( + T4 186 )  ( + T5 263 ) ) ( <= ( + T5 277 )( + T4 180 ) ) )
(or ( <= ( + T4 10 ) T6 ) ( <= ( + T6 87 ) T4 ) )
(or ( <= ( + T4 103 )  ( + T6 87 ) ) ( <= ( + T6 109 )( + T4 10 ) ) )
(or ( <= ( + T4 139 )  ( + T6 109 ) ) ( <= ( + T6 139 )( + T4 103 ) ) )
(or ( <= ( + T4 147 )  ( + T6 139 ) ) ( <= ( + T6 234 )( + T4 139 ) ) )
(or ( <= ( + T4 180 )  ( + T6 234 ) ) ( <= ( + T6 250 )( + T4 147 ) ) )
(or ( <= ( + T4 186 )  ( + T6 250 ) ) ( <= ( + T6 267 )( + T4 180 ) ) )
(or ( <= ( + T4 10 ) T7 ) ( <= ( + T7 25 ) T4 ) )
(or ( <= ( + T4 103 )  ( + T7 25 ) ) ( <= ( + T7 26 )( + T4 10 ) ) )
(or ( <= ( + T4 139 )  ( + T7 26 ) ) ( <= ( + T7 117 )( + T4 103 ) ) )
(or ( <= ( + T4 147 )  ( + T7 117 ) ) ( <= ( + T7 134 )( + T4 139 ) ) )
(or ( <= ( + T4 180 )  ( + T7 134 ) ) ( <= ( + T7 181 )( + T4 147 ) ) )
(or ( <= ( + T4 186 )  ( + T7 181 ) ) ( <= ( + T7 250 )( + T4 180 ) ) )
(or ( <= ( + T4 10 ) T8 ) ( <= ( + T8 90 ) T4 ) )
(or ( <= ( + T4 103 )  ( + T8 90 ) ) ( <= ( + T8 128 )( + T4 10 ) ) )
(or ( <= ( + T4 139 )  ( + T8 128 ) ) ( <= ( + T8 221 )( + T4 103 ) ) )
(or ( <= ( + T4 147 )  ( + T8 221 ) ) ( <= ( + T8 268 )( + T4 139 ) ) )
(or ( <= ( + T4 180 )  ( + T8 268 ) ) ( <= ( + T8 288 )( + T4 147 ) ) )
(or ( <= ( + T4 186 )  ( + T8 288 ) ) ( <= ( + T8 373 )( + T4 180 ) ) )
(or ( <= ( + T5 74 ) T6 ) ( <= ( + T6 87 ) T5 ) )
(or ( <= ( + T5 174 )  ( + T6 87 ) ) ( <= ( + T6 109 )( + T5 74 ) ) )
(or ( <= ( + T5 196 )  ( + T6 109 ) ) ( <= ( + T6 139 )( + T5 174 ) ) )
(or ( <= ( + T5 211 )  ( + T6 139 ) ) ( <= ( + T6 234 )( + T5 196 ) ) )
(or ( <= ( + T5 263 )  ( + T6 234 ) ) ( <= ( + T6 250 )( + T5 211 ) ) )
(or ( <= ( + T5 277 )  ( + T6 250 ) ) ( <= ( + T6 267 )( + T5 263 ) ) )
(or ( <= ( + T5 74 ) T7 ) ( <= ( + T7 25 ) T5 ) )
(or ( <= ( + T5 174 )  ( + T7 25 ) ) ( <= ( + T7 26 )( + T5 74 ) ) )
(or ( <= ( + T5 196 )  ( + T7 26 ) ) ( <= ( + T7 117 )( + T5 174 ) ) )
(or ( <= ( + T5 211 )  ( + T7 117 ) ) ( <= ( + T7 134 )( + T5 196 ) ) )
(or ( <= ( + T5 263 )  ( + T7 134 ) ) ( <= ( + T7 181 )( + T5 211 ) ) )
(or ( <= ( + T5 277 )  ( + T7 181 ) ) ( <= ( + T7 250 )( + T5 263 ) ) )
(or ( <= ( + T5 74 ) T8 ) ( <= ( + T8 90 ) T5 ) )
(or ( <= ( + T5 174 )  ( + T8 90 ) ) ( <= ( + T8 128 )( + T5 74 ) ) )
(or ( <= ( + T5 196 )  ( + T8 128 ) ) ( <= ( + T8 221 )( + T5 174 ) ) )
(or ( <= ( + T5 211 )  ( + T8 221 ) ) ( <= ( + T8 268 )( + T5 196 ) ) )
(or ( <= ( + T5 263 )  ( + T8 268 ) ) ( <= ( + T8 288 )( + T5 211 ) ) )
(or ( <= ( + T5 277 )  ( + T8 288 ) ) ( <= ( + T8 373 )( + T5 263 ) ) )
(or ( <= ( + T6 87 ) T7 ) ( <= ( + T7 25 ) T6 ) )
(or ( <= ( + T6 109 )  ( + T7 25 ) ) ( <= ( + T7 26 )( + T6 87 ) ) )
(or ( <= ( + T6 139 )  ( + T7 26 ) ) ( <= ( + T7 117 )( + T6 109 ) ) )
(or ( <= ( + T6 234 )  ( + T7 117 ) ) ( <= ( + T7 134 )( + T6 139 ) ) )
(or ( <= ( + T6 250 )  ( + T7 134 ) ) ( <= ( + T7 181 )( + T6 234 ) ) )
(or ( <= ( + T6 267 )  ( + T7 181 ) ) ( <= ( + T7 250 )( + T6 250 ) ) )
(or ( <= ( + T6 87 ) T8 ) ( <= ( + T8 90 ) T6 ) )
(or ( <= ( + T6 109 )  ( + T8 90 ) ) ( <= ( + T8 128 )( + T6 87 ) ) )
(or ( <= ( + T6 139 )  ( + T8 128 ) ) ( <= ( + T8 221 )( + T6 109 ) ) )
(or ( <= ( + T6 234 )  ( + T8 221 ) ) ( <= ( + T8 268 )( + T6 139 ) ) )
(or ( <= ( + T6 250 )  ( + T8 268 ) ) ( <= ( + T8 288 )( + T6 234 ) ) )
(or ( <= ( + T6 267 )  ( + T8 288 ) ) ( <= ( + T8 373 )( + T6 250 ) ) )
(or ( <= ( + T7 25 ) T8 ) ( <= ( + T8 90 ) T7 ) )
(or ( <= ( + T7 26 )  ( + T8 90 ) ) ( <= ( + T8 128 )( + T7 25 ) ) )
(or ( <= ( + T7 117 )  ( + T8 128 ) ) ( <= ( + T8 221 )( + T7 26 ) ) )
(or ( <= ( + T7 134 )  ( + T8 221 ) ) ( <= ( + T8 268 )( + T7 117 ) ) )
(or ( <= ( + T7 181 )  ( + T8 268 ) ) ( <= ( + T8 288 )( + T7 134 ) ) )
(or ( <= ( + T7 250 )  ( + T8 288 ) ) ( <= ( + T8 373 )( + T7 181 ) ) )
( <= ( + T1 300 ) Z)
( <= ( + T2 343 ) Z)
( <= ( + T3 322 ) Z)
( <= ( + T4 186 ) Z)
( <= ( + T5 277 ) Z)
( <= ( + T6 267 ) Z)
( <= ( + T7 250 ) Z)
( <= ( + T8 373 ) Z)
( >= T1 0 )
( >= T2 0 )
( >= T3 0 )
( >= T4 0 )
( >= T5 0 )
( >= T6 0 )
( >= T7 0 )
( >= T8 0 )
) )
(minimize Z)
(check-sat)